#Contact model example

atom_style	granular
atom_modify	map array
boundary	f f f	#periodic in z
newton		off

communicate	single vel yes

units		micro

#region		reg block -20.5 70.5 -20.5 70.5 -0.5 100.5 units box
#create_box	3 reg

#processors     2 2 1
neighbor	0.2 bin
neigh_modify	delay 0

read_restart    restart/l1.restart

#Material properties required for new pair styles

fix 		m1 all property/global youngsModulus peratomtype 18.5e6 18.5e6 
fix 		m2 all property/global poissonsRatio peratomtype 0.3 0.3
fix 		m3 all property/global coefficientRestitution peratomtypepair 2 0.1 0.1 0.1 0.1 
fix 		m4 all property/global coefficientFriction peratomtypepair 2 0.1 0.1 0.1 0.1 
fix 		m5 all property/global coefficientRollingFriction peratomtypepair 2 0.1 0.1 0.1 0.1  
fix 		m6 all property/global cohesionEnergyDensity peratomtypepair 2 1400000 0 0 0

#New pair style
pair_style gran model hertz tangential history cohesion sjkr rolling_friction epsd2 
pair_coeff	* *

timestep	0.0002

group walls type 2
fix lin walls move linear 0.0 0.0 0.0

group free type 1

fix     zwalls1  free wall/gran model hertz tangential history primitive type 2 zplane 0
fix     cylwalls free wall/gran model hertz tangential history primitive type 2 zcylinder 50 0 0

fix			   integr all nve/sphere

compute        ker  all   erotate/sphere                  # Compute the rotational kinetic energy of all particles
compute        fc    all   pair/gran/local id pos force
compute        frc  walls   reduce sum fz                   # Total pressure on ghost particles
variable       mss  equal  mass(ptc) 		           # Total mass of LPS and NCM particles
compute        posw walls  reduce ave z                    # Total pressure on ghost particles
compute        radp free   reduce max x                    # Total pressure on ghost particles
variable       prs  equal  (c_frc)/(1000*3.141592*c_radp*c_radp)    # Pressure in unit of MPa
# Print info to screen, include step, total atom number, kinetic nergy, compute_1(Rotational energy), volume
thermo_style    custom step atoms ke c_ker vol v_prs c_posw c_radp
thermo          1000                              # Print thermodynamics every 500 stimesteps
thermo_modify   lost ignore norm no
compute_modify	thermo_temp dynamic yes

run 500000

unfix     cylwalls

dump	  dmp all custom 50000 post_utm/dump*.liggghts id type x y z vx vy vz fx fy fz omegax omegay omegaz radius mass
dump      dmp3 all local 50000 post_utmfc/dumpfc*.liggghts c_fc[1] c_fc[2] c_fc[3] c_fc[4] c_fc[5] c_fc[6] c_fc[7] c_fc[8] c_fc[9] c_fc[10] c_fc[11] c_fc[12]

fix 	  lin walls move linear 0.0 0.0 -0.02

fix       sav walls ave/time 1 1 10000 v_prs c_radp c_frc c_posw file temp_utm.txt

run 10000000
