###### DFE Method to compute Particle distribution under pressure #######
### Define Variables
variable  imdl    index 1     
clear   					# Clear all previous runs

variable  iNcm   equal 1
variable  iLps   equal 2
variable  sxy    equal 50    
variable  sz     equal 100
variable  kn_11  equal 1300000
variable  kn_22  equal 142900
variable  kn_33  equal 429000
variable  kn_44  equal 10000000
variable  kn_12  equal 257500
variable  kn_13  equal 857500
variable  kn_14  equal 2600000
variable  kn_23  equal 385800
variable  kn_24  equal 285800
variable  kn_34  equal 858000

variable  kt     equal 10
variable  gma_n  equal 100
variable  xmu    equal 8

### Environment Setup
units         micro           # micro unit system is suitable for the current research
atom_style    sphere          # Granular Particle method will be used
boundary      fm fm fm          # Periodic condition in only x and y direction
comm_modify   vel yes         # Communicate velocity info with ghost atoms
neighbor      0.2 bin         # 0.2 micron extra distance beyond force cutoff
neigh_modify  delay 0         # Update the neighbor list every step
timestep      0.0002         # Time step is in unit micro-seconds

### Geometry Definition
#read_data    ../massratio/mr${imdl}/mdl_ncm${iNcm}_lps${iLps}.data
read_data    mdl.data
group  ptc  type  1 2 3
group  ncm  type  1
group  lps  type  2
group  car  type  3
group  gst  type  4

### Granular Force Fields Definition
## normal repulsion elastic constant K_n is in unit 1000Pa; tangential elastic constant Kt(NULL) = 2/7*Kn;
## Elastic constant are decrease to 1/100 of physical value to decay kinetic energy quickly
## viscoelastic damping constant for normal contact 50;
## viscoelastic damping constant for tangential contact gamma_t(NULL) = 1/2* gamma_n;
## static yield criterion 0.5, and tangential damping force is excluded
pair_style gran/hertz/history ${kn_11} ${kt} ${gma_n} NULL ${xmu} 1
pair_coeff 1 1
pair_style gran/hertz/history ${kn_22} ${kt} ${gma_n} NULL ${xmu} 1
pair_coeff 2 2
pair_style gran/hertz/history ${kn_12} ${kt} ${gma_n} NULL ${xmu} 1
pair_coeff 1 2
pair_style gran/hertz/history ${kn_13} ${kt} ${gma_n} NULL ${xmu} 1
pair_coeff 1 3
pair_style gran/hertz/history ${kn_23} ${kt} ${gma_n} NULL ${xmu} 1
pair_coeff 2 3
pair_style gran/hertz/history ${kn_33} ${kt} ${gma_n} NULL ${xmu} 1
pair_coeff 3 3
pair_style gran/hertz/history ${kn_14} ${kt} ${gma_n} NULL ${xmu} 1
pair_coeff 1 4
pair_style gran/hertz/history ${kn_24} ${kt} ${gma_n} NULL ${xmu} 1
pair_coeff 2 4
pair_style gran/hertz/history ${kn_34} ${kt} ${gma_n} NULL ${xmu} 1
pair_coeff 3 4
pair_style gran/hertz/history ${kn_44} ${kt} ${gma_n} NULL ${xmu} 1
pair_coeff 4 4


### Calculation setup
## NVE emsemble with gravity
fix 1 all nve/sphere                             # NVE ensemble for Granular system
## Gravity is necessary for pour
#fix 2 all gravity 0.1 spherical 0.0 -180.0    # gravitic acceleration in unit micron/microsecond^2
fix 3 gst move linear 0 0 -0.3               # Apply constant velosity on ghost particle in z direction, in unit micron/micro-second

## Define the wall in z direction because only z direction is non-periodic
# NCM to Wall
fix x1wll ncm wall/gran hertz/history ${kn_14} ${kt} ${gma_n} NULL ${xmu} 1 xplane 0.0 ${sxy}
fix y1wll ncm wall/gran hertz/history ${kn_14} ${kt} ${gma_n} NULL ${xmu} 1 yplane 0.0 ${sxy}
fix z1wll ncm wall/gran hertz/history ${kn_14} ${kt} ${gma_n} NULL ${xmu} 1 zplane 0.0 ${sz}
# LPS to Wall
fix x2wll lps wall/gran hertz/history ${kn_24} ${kt} ${gma_n} NULL ${xmu} 1 xplane 0.0 ${sxy}
fix y2wll lps wall/gran hertz/history ${kn_24} ${kt} ${gma_n} NULL ${xmu} 1 yplane 0.0 ${sxy}
fix z2wll lps wall/gran hertz/history ${kn_24} ${kt} ${gma_n} NULL ${xmu} 1 zplane 0.0 ${sz}

# Carbon to Wall
fix x3wll car wall/gran hertz/history ${kn_34} ${kt} ${gma_n} NULL ${xmu} 1 xplane 0.0 ${sxy}
fix y3wll car wall/gran hertz/history ${kn_34} ${kt} ${gma_n} NULL ${xmu} 1 yplane 0.0 ${sxy}
fix z3wll car wall/gran hertz/history ${kn_34} ${kt} ${gma_n} NULL ${xmu} 1 zplane 0.0 ${sz}

### OUTPUT results to Screen
compute        ker   all   erotate/sphere                  # Compute the rotational kinetic energy of all particles
compute        frc   gst   reduce sum fz                   # Total pressure on ghost particles
variable       mss  equal  mass(ptc) 		           # Total mass of LPS, NCM and carbon particles
variable       prs  equal  (c_frc)/(1000*${sxy}*${sxy})    # Pressure in unit of MPa
# Print info to screen, include step, total atom number, kinetic nergy, compute_1(Rotational energy), volume
thermo_style    custom step atoms ke c_ker vol v_prs
thermo          1000                              # Print thermodynamics every 500 stimesteps
thermo_modify   lost ignore norm no
compute_modify  thermo_temp dynamic/dof yes

### Run calculation
# 1. Run first period: move down until pressure growth
label loop1
  run   5000
  if "${prs} > 2" then "jump mr.in loop2"
jump mr.in loop1

# 2. Run second period: hold to pressure = 200MPa so that kinetic energy decrease
label loop2
unfix 3
fix 3 gst move linear 0 0 0.0
run 150000

# 3. Run third period: decrease pressing velocity so that pressure value converge more accurate to designed value
label loop3
  fix 3 gst move linear 0 0 -0.02
  run 2000
  if "${prs} > 2" then "jump mr.in loop4"
jump mr.in loop3

# 4. Run forth period: hold for relax
label loop4
fix 3 gst move linear 0 0 0.0
run 50000
if "${prs} < 2" then "jump mr.in loop3"

run 200000
# 5. Output 5 frames for average
#dump 2 all custom 1000 massratio/mr${imdl}/pck_ncm${iNcm}_lps${iLps}.lmp id type x y z radius fx fy fz
dump 2 all custom 10000 rst.lmp id type x y z radius fx fy fz
dump_modify 2 format line "%7d %5d %17.12f %17.12f %17.12f %17.12f %20.12e %20.12e %20.12e"
run 50000
# End of loop
next imdl
jump mr.in
