#Contact model example

atom_style	granular
atom_modify	map array
boundary	f f f	#periodic in z
newton		off

communicate	single vel yes

units		micro

#region		reg block -20.5 70.5 -20.5 70.5 -0.5 100.5 units box
#create_box	3 reg

#processors     2 2 1
neighbor	0.2 bin
neigh_modify	delay 0

read_data mdl.data

#Material properties required for new pair styles

fix 		m1 all property/global youngsModulus peratomtype 18.5e6 18.5e6 
fix 		m2 all property/global poissonsRatio peratomtype 0.3 0.3
fix 		m3 all property/global coefficientRestitution peratomtypepair 2 0.1 0.1 0.1 0.1 
fix 		m4 all property/global coefficientFriction peratomtypepair 2 0.1 0.1 0.1 0.1 
fix 		m5 all property/global coefficientRollingFriction peratomtypepair 2 0.1 0.1 0.1 0.1  
fix 		m6 all property/global cohesionEnergyDensity peratomtypepair 2 10000 0 0 0

#New pair style
pair_style gran model hertz tangential history cohesion sjkr rolling_friction epsd2 
pair_coeff	* *

timestep	0.0002


group walls type 2
fix linl walls move linear 0.0 0.0 0.0

group free type 1

fix     zwalls1  free wall/gran model hertz tangential history primitive type 1 zplane 0
fix     zwalls2  free wall/gran model hertz tangential history primitive type 1 zplane 500
fix     cylwalls free wall/gran model hertz tangential history primitive type 1 zcylinder 50 0 0

fix			integr all nve/sphere

compute        ker  all   erotate/sphere                  # Compute the rotational kinetic energy of all particles
compute        frc  walls   reduce sum fz                   # Total pressure on ghost particles
variable       mss  equal  mass(ptc) 		           # Total mass of LPS and NCM particles
variable       prs  equal  (c_frc)/(1000*3.1415*50*50)    # Pressure in unit of MPa
# Print info to screen, include step, total atom number, kinetic nergy, compute_1(Rotational energy), volume
thermo_style    custom step atoms ke c_ker vol v_prs 
thermo          1000                              # Print thermodynamics every 500 stimesteps
thermo_modify   lost ignore norm no
compute_modify	thermo_temp dynamic yes

dump			dmp all custom 100000 post/dump*.liggghts id type x y z vx vy vz fx fy fz omegax omegay omegaz radius mass

fix 		lin walls move linear 0.0 0.0 -0.25

### Run calculation
# 1. Run first period: move down until pressure growth
label loop1
  run   2000
  if "${prs} > 50" then "jump in.test_init loop2"
jump in.test_init loop1

# 2. Run second period: hold to pressure = 200MPa so that kinetic energy decrease
label loop2
unfix lin
fix lin walls move linear 0 0 0.0
run 200000

# 3. Run third period: decrease pressing velocity so that pressure value converge more accurate to designed value
label loop3
  fix lin walls move linear 0 0 -0.02
  run 2000
  if "${prs} > 50" then "jump in.test_init loop4"
jump in.test_init loop3

# 4. Run forth period: hold for relax
label loop4
fix lin walls move linear 0 0 0.0
run 50000
if "${prs} < 50" then "jump in.test_init loop3"

run 300000

write_restart restart/l1.restart

