###### DFE Method to compute Particle distribution under pressure #######
### Define Variables

variable  sxy    equal 9    
variable  sz     equal 3.815

### Define Variables for expansion/contraction
variable  Texp   equal 0.1  # %Total expansion *100     
variable  grwRt  equal 2000  # Number of steps to reach the total expansion 
variable  grwFq  equal 1000  # Number of runs to reach one step
variable  grwFi  equal ${grwRt}*${grwFq}
variable  cycles equal 2     # Number of Cycles of expansion/contraction

### Environment Setup
atom_style	  granular
atom_modify	  map array
boundary	  p p f	#periodic in z
newton		  off
communicate	  single vel yes
units		  micro
neighbor      0.02 bin         # 0.2 micron extra distance beyond force cutoff
neigh_modify  delay 0

### Geometry Definition
read_restart    cycle_d8cyc1000.restart

#--------------------------Material Information---------------------------------------------------------
variable        cf_pp         equal     0.1     #0.1
variable        cf_pw         equal     0.08    #0.08
variable        cf_ww         equal     0.08    #0.08
variable        cof_pp        equal     0.6     #0.6
variable        cof_pw        equal     0.05    #0.05
variable        cof_ww        equal     0.05    #0.05
variable        corf_pp       equal     0.6     #0.6
variable        corf_pw       equal     0.05    #0.05
variable        corf_ww       equal     0.05    #0.05
variable        Yp            equal     1.775e9 #1.775e9
variable        Yw            equal     1e+8    #1e+8
variable        dt            equal     1e-5    

#---------------------Assign Material Properties to particle and wall----------------------------------------
fix 		m1 all property/global youngsModulus peratomtype ${Yp} ${Yw} ${Yw}
fix 		m2 all property/global poissonsRatio peratomtype 0.3 0.3 0.3 
fix 		m3 all property/global coefficientRestitution peratomtypepair 3 ${cf_pp} ${cf_pw} ${cf_pw} ${cf_ww} ${cf_pw} ${cf_pw} ${cf_ww} ${cf_pw} ${cf_pw} 
fix     m4 all property/global coefficientFriction peratomtypepair 3 ${cof_pp} ${cof_pw} ${cof_pw} ${cof_ww} ${cof_pw} ${cof_pw} ${cof_ww} ${cof_pw} ${cof_pw}
fix     m5 all property/global coefficientRollingFriction peratomtypepair 3 ${corf_pp} ${corf_pw} ${corf_pw} ${corf_ww} ${corf_pw} ${corf_pw} ${corf_ww} ${corf_pw} ${corf_pw}
fix     m6 all property/global cohesionEnergyDensity peratomtypepair 3 82500000 0 0 0 0 0 0 0 0 #82500000

#Define pair style
pair_style gran model hertz tangential history cohesion sjkr #Hertzian with cohesion
pair_coeff	* *


timestep	${dt}
group walls type 3
group ncm type 1

fix     xwalls1  all wall/gran model hertz tangential history primitive type 2 xplane -${sxy}
fix     xwalls2  all wall/gran model hertz tangential history primitive type 2 xplane ${sxy}
fix     ywalls1  all wall/gran model hertz tangential history primitive type 2 yplane -${sxy}
fix     ywalls2  all wall/gran model hertz tangential history primitive type 2 yplane ${sxy}

### Calculation setup
## NVE emsemble with gravity
fix 1 all nve/sphere                             # NVE ensemble for Granular system

### OUTPUT results to Screen
compute        ker   all   erotate/sphere                  # Compute the rotational kinetic energy of all particles
# Print info to screen, include step, total atom number, kinetic nergy, compute_1(Rotational energy), volume
thermo_style    custom step atoms ke
thermo          100000                              # Print thermodynamics every 500 stimesteps
thermo_modify   lost ignore norm no
compute_modify  thermo_temp dynamic yes

dump	dmp all custom 100000 post_utm_after1000/dump*.liggghts id type x y z vx vy vz fx fy fz omegax omegay omegaz radius mass

run 100000

fix     zwalls2  all wall/gran model hertz tangential history primitive type 2 zplane ${sz}

region bc1 block -9 9 -9 9  -4.4 -4.2  units box
lattice sc 0.4
create_atoms 3 region bc1 
group gst type 3
set group gst density 100000 diameter 0.4 

compute        frc  gst   reduce sum fz                   # Total pressure on ghost particles
compute        posw gst   reduce ave z                    # Total pressure on ghost particles
fix            sav gst ave/time 1 1 10000 c_frc c_posw file temp_after_cyc1000.txt


fix 3 gst move linear 0 0 0.02              # Apply constant velosity on ghost particle in z direction, in unit micron/micro-second

run 10000000

write_restart   utm_aftercyc1000.restart
